3796 7475
1290 3831
5922 3460
5792 6468
2444 5251
1213 8019
2492 1615
9657 8432
3350 2573
737 1265
778 186
2754 6249
4917 9697
6266 8623
1955 9370
8348 3062
5786 8834
9169 9096
6154 1984
8992 8511
5608 6219
1851 3497
6364 4576
1366 2309
5330 6268
4699 9077
8793 6526
1875 8452
1653 7295
3805 2344
2157 8805
1389 6254
3082 8142
1208 8741
3690 5191
348 6019
5279 9313
68 2505
5388 8304
3602 3522
7099 3809
3775 5427
7398 5966
7499 4975
9967 8339
1120 9723
5740 8963
7883 2075
7082 5855
5777 8643
